Route #1: 35 34 26 4 2 12
Route #2: 40 20 16 7 18
Route #3: 32 8 15 25 23 17 38 13
Route #4: 33 29 41 27 44 21
Route #5: 39 14 31 19 36 30 5
Route #6: 42 1 37 22 10 9
Route #7: 24 11 43 3 28 6
cost 1169
%user    47m28.215s
